c FILE: i080-301

c SOURCE: From steinlib

c DESCRIPTION: Steinlib instance with 80 nodes and 120 edges.

p edge 80 120
e 1 15
e 1 20
e 1 43
e 1 50
e 1 55
e 1 68
e 1 72
e 2 50
e 3 25
e 3 34
e 3 55
e 3 73
e 3 80
e 4 47
e 4 76
e 5 10
e 6 18
e 6 43
e 6 79
e 7 25
e 8 19
e 8 41
e 9 41
e 9 47
e 10 16
e 10 60
e 11 12
e 11 58
e 12 32
e 12 35
e 12 57
e 12 74
e 12 77
e 13 19
e 13 57
e 13 76
e 14 33
e 14 41
e 16 17
e 16 28
e 16 40
e 16 49
e 16 52
e 16 70
e 16 78
e 17 34
e 17 44
e 17 69
e 18 43
e 18 62
e 18 67
e 19 37
e 19 53
e 19 59
e 20 29
e 20 42
e 20 78
e 21 66
e 22 32
e 23 45
e 23 79
e 24 76
e 24 78
e 25 40
e 25 53
e 26 27
e 26 57
e 26 58
e 27 45
e 27 48
e 28 36
e 28 38
e 28 44
e 30 70
e 31 78
e 33 50
e 33 71
e 34 51
e 34 57
e 34 59
e 34 60
e 35 38
e 35 51
e 36 75
e 37 44
e 37 65
e 38 59
e 38 74
e 39 53
e 41 60
e 41 71
e 41 73
e 42 46
e 42 52
e 45 46
e 45 57
e 45 74
e 45 76
e 46 63
e 47 73
e 48 73
e 49 51
e 49 70
e 50 60
e 50 72
e 51 61
e 51 74
e 52 69
e 52 72
e 53 64
e 53 66
e 54 58
e 54 72
e 56 72
e 60 63
e 62 72
e 62 79
e 63 75
e 65 72
e 67 74
